set stocks := AAPL	BA	PG	JNJ	WMT;

param covar:
	AAPL	BA	PG	JNJ	WMT:=
AAPL	0.000493075	-1.70857E-05	2.04657E-05	2.67373E-05	4.05699E-05
BA	-1.70857E-05	0.00075947	0.00014101	5.08744E-05	0.000138866
PG	2.04657E-05	0.00014101	0.000249679	0.000104909	4.06822E-05
JNJ	2.67373E-05	5.08744E-05	0.000104909	0.000277576	6.31053E-05
WMT	4.05699E-05	0.000138866	4.06822E-05	6.31053E-05	0.000446222;

param expret:=
AAPL	1.006521504
BA	1.013555261
PG	1.002073087
JNJ	1.002837687
WMT	1.002728902;
